
  22   10
  10   10   10   10   10   10   10   10   10   10

   0   0   0   0   0   0   0   0   0   0   0   4 2 3 4 5 
   3  10  10  10  10  10  10  10  10  10  10   2 7 6 
   4  10  10  10  10  10  10  10  10  10  10   2 7 6 
   2  10  10  10  10  10  10  10  10  10  10   1 7 
  10  10  10  10  10  10  10  10  10  10  10   1 6 
   6  10  10  10  10  10  10  10  10  10  10   2 9 8 
   4  10  10  10  10  10  10  10  10  10  10   2 9 8 
   4  10  10  10  10  10  10  10  10  10  10   2 13 11 
   4  10  10  10  10  10  10  10  10  10  10   1 10 
   9  10  10  10  10  10  10  10  10  10  10   2 13 12 
   7  10  10  10  10  10  10  10  10  10  10   1 12 
   7  10  10  10  10  10  10  10  10  10  10   1 14 
   2  10  10  10  10  10  10  10  10  10  10   1 14 
   7  10  10  10  10  10  10  10  10  10  10   2 17 15 
   2  10  10  10  10  10  10  10  10  10  10   2 18 16 
   7  10  10  10  10  10  10  10  10  10  10   2 21 19 
   2  10  10  10  10  10  10  10  10  10  10   2 21 19 
   2  10  10  10  10  10  10  10  10  10  10   2 21 20 
   5  10  10  10  10  10  10  10  10  10  10   1 20 
   6  10  10  10  10  10  10  10  10  10  10   1 22
   2  10  10  10  10  10  10  10  10  10  10   1 22
   0   0   0   0   0   0   0   0   0   0   0   0 
